0 12 11 35 34 42 5 8 6 7 66 41 40 39 36 37 38 48 67 55 56 57 58 59 60 61 30 29 22 21 27 26 25 24 23 28 31 18 19 17 20 15 16 43 2 4 68 69 3 50 49 63 64 65 62 53 54 72 73 70 71 51 52 14 13 1 45 46 47 44 74 33 32 10 9 0 